% Generated FlatZinc statistics:
%%%mzn-stat: paths=0
%%%mzn-stat: flatBoolVars=336
%%%mzn-stat: flatIntVars=329
%%%mzn-stat: flatBoolConstraints=224
%%%mzn-stat: flatIntConstraints=625
%%%mzn-stat: evaluatedHalfReifiedConstraints=336
%%%mzn-stat: method="minimize"
%%%mzn-stat: flatTime=0.589399
%%%mzn-stat-end
opponent = 
[| 2, 3, 5, 4, 6, 7, 8
 | 1, 4, 6, 3, 5, 8, 7
 | 4, 1, 7, 2, 8, 5, 6
 | 3, 2, 8, 1, 7, 6, 5
 | 6, 7, 1, 8, 2, 3, 4
 | 5, 8, 2, 7, 1, 4, 3
 | 8, 5, 3, 6, 4, 1, 2
 | 7, 6, 4, 5, 3, 2, 1
 |];
venue = 
[| 2, 2, 1, 2, 1, 1, 1
 | 1, 1, 2, 1, 2, 2, 2
 | 2, 1, 2, 2, 1, 1, 2
 | 1, 2, 2, 1, 1, 2, 2
 | 1, 2, 2, 2, 1, 2, 1
 | 2, 1, 1, 2, 2, 1, 1
 | 2, 1, 1, 1, 2, 2, 1
 | 1, 2, 1, 1, 2, 1, 2
 |];
travel = 
[| 1, 1, 2, 3, 3, 0, 0, 0
 | 0, 0, 4, 4, 3, 3, 1, 3
 | 1, 1, 4, 3, 1, 0, 3, 3
 | 0, 2, 2, 4, 0, 2, 1, 1
 | 0, 2, 2, 1, 3, 2, 2, 0
 | 1, 1, 0, 1, 2, 3, 0, 0
 | 1, 1, 0, 0, 3, 3, 2, 0
 | 0, 2, 2, 0, 3, 3, 1, 1
 |];
objective = 98;
% time elapsed: 0.76 s
----------
opponent = 
[| 2, 3, 5, 4, 6, 7, 8
 | 1, 4, 6, 3, 5, 8, 7
 | 4, 1, 8, 2, 7, 6, 5
 | 3, 2, 7, 1, 8, 5, 6
 | 6, 7, 1, 8, 2, 4, 3
 | 5, 8, 2, 7, 1, 3, 4
 | 8, 5, 4, 6, 3, 1, 2
 | 7, 6, 3, 5, 4, 2, 1
 |];
venue = 
[| 2, 2, 1, 2, 1, 1, 1
 | 1, 1, 2, 1, 2, 2, 2
 | 2, 1, 1, 2, 2, 2, 1
 | 1, 2, 1, 1, 2, 2, 2
 | 1, 2, 2, 2, 1, 1, 2
 | 2, 1, 1, 2, 2, 1, 1
 | 2, 1, 2, 1, 1, 2, 1
 | 1, 2, 2, 1, 1, 1, 2
 |];
travel = 
[| 1, 1, 2, 3, 3, 0, 0, 0
 | 0, 0, 4, 4, 3, 3, 1, 3
 | 1, 1, 0, 1, 3, 1, 3, 0
 | 0, 2, 2, 0, 4, 3, 1, 2
 | 0, 2, 2, 1, 3, 0, 2, 2
 | 1, 1, 0, 1, 2, 3, 0, 0
 | 1, 1, 3, 3, 0, 2, 2, 0
 | 0, 2, 3, 3, 0, 0, 1, 1
 |];
objective = 94;
% time elapsed: 0.77 s
----------
opponent = 
[| 2, 3, 5, 4, 6, 7, 8
 | 1, 4, 6, 3, 8, 5, 7
 | 4, 1, 8, 2, 7, 6, 5
 | 3, 2, 7, 1, 5, 8, 6
 | 6, 7, 1, 8, 4, 2, 3
 | 5, 8, 2, 7, 1, 3, 4
 | 8, 5, 4, 6, 3, 1, 2
 | 7, 6, 3, 5, 2, 4, 1
 |];
venue = 
[| 2, 2, 1, 2, 1, 1, 1
 | 1, 1, 2, 1, 2, 2, 2
 | 2, 1, 1, 2, 2, 2, 1
 | 1, 2, 1, 1, 2, 2, 2
 | 1, 2, 2, 2, 1, 1, 2
 | 2, 1, 1, 2, 2, 1, 1
 | 2, 1, 2, 1, 1, 2, 1
 | 1, 2, 2, 1, 1, 1, 2
 |];
travel = 
[| 1, 1, 2, 3, 3, 0, 0, 0
 | 0, 0, 4, 4, 2, 3, 2, 3
 | 1, 1, 0, 1, 3, 1, 3, 0
 | 0, 2, 2, 0, 1, 3, 2, 2
 | 0, 2, 2, 1, 3, 0, 2, 2
 | 1, 1, 0, 1, 2, 3, 0, 0
 | 1, 1, 3, 3, 0, 2, 2, 0
 | 0, 2, 3, 3, 0, 0, 1, 1
 |];
objective = 92;
% time elapsed: 0.80 s
----------
opponent = 
[| 5, 6, 2, 7, 3, 4, 8
 | 7, 4, 1, 5, 8, 6, 3
 | 4, 7, 6, 8, 1, 5, 2
 | 3, 2, 8, 6, 7, 1, 5
 | 1, 8, 7, 2, 6, 3, 4
 | 8, 1, 3, 4, 5, 2, 7
 | 2, 3, 5, 1, 4, 8, 6
 | 6, 5, 4, 3, 2, 7, 1
 |];
venue = 
[| 1, 1, 2, 1, 2, 2, 1
 | 2, 1, 1, 2, 2, 2, 1
 | 2, 2, 2, 1, 1, 1, 2
 | 1, 2, 2, 2, 1, 1, 2
 | 2, 2, 2, 1, 1, 2, 1
 | 1, 2, 1, 1, 2, 1, 2
 | 1, 1, 1, 2, 2, 2, 1
 | 2, 1, 1, 2, 1, 1, 2
 |];
travel = 
[| 0, 0, 1, 1, 2, 1, 3, 0
 | 3, 3, 0, 3, 3, 2, 4, 0
 | 1, 3, 1, 3, 0, 0, 1, 1
 | 0, 2, 2, 2, 2, 0, 1, 1
 | 4, 1, 1, 2, 0, 2, 2, 0
 | 0, 3, 3, 0, 1, 1, 1, 1
 | 0, 0, 0, 2, 3, 4, 1, 0
 | 2, 2, 0, 3, 3, 0, 1, 1
 |];
objective = 90;
% time elapsed: 1.30 s
----------
opponent = 
[| 3, 5, 2, 4, 7, 6, 8
 | 4, 7, 1, 3, 6, 8, 5
 | 1, 6, 7, 2, 8, 5, 4
 | 2, 8, 6, 1, 5, 7, 3
 | 7, 1, 8, 6, 4, 3, 2
 | 8, 3, 4, 5, 2, 1, 7
 | 5, 2, 3, 8, 1, 4, 6
 | 6, 4, 5, 7, 3, 2, 1
 |];
venue = 
[| 2, 1, 2, 2, 1, 1, 1
 | 1, 2, 1, 1, 2, 2, 2
 | 1, 2, 2, 2, 1, 1, 2
 | 2, 2, 2, 1, 2, 1, 1
 | 2, 2, 2, 1, 1, 2, 1
 | 1, 1, 1, 2, 1, 2, 2
 | 1, 1, 1, 2, 2, 2, 1
 | 2, 1, 1, 1, 2, 1, 2
 |];
travel = 
[| 2, 2, 1, 2, 3, 0, 0, 0
 | 0, 3, 3, 0, 4, 2, 3, 3
 | 0, 3, 1, 3, 1, 0, 1, 1
 | 2, 2, 2, 2, 1, 1, 0, 0
 | 2, 2, 1, 3, 0, 2, 2, 0
 | 0, 0, 0, 1, 1, 3, 2, 1
 | 0, 0, 0, 1, 1, 3, 3, 0
 | 2, 2, 0, 0, 3, 3, 1, 1
 |];
objective = 88;
% time elapsed: 3.15 s
----------
opponent = 
[| 2, 3, 5, 4, 7, 6, 8
 | 1, 7, 4, 8, 6, 5, 3
 | 5, 1, 7, 6, 4, 8, 2
 | 6, 8, 2, 1, 3, 7, 5
 | 3, 6, 1, 7, 8, 2, 4
 | 4, 5, 8, 3, 2, 1, 7
 | 8, 2, 3, 5, 1, 4, 6
 | 7, 4, 6, 2, 5, 3, 1
 |];
venue = 
[| 2, 2, 1, 2, 1, 1, 1
 | 1, 2, 1, 2, 2, 2, 1
 | 1, 1, 2, 2, 2, 1, 2
 | 2, 2, 2, 1, 1, 1, 2
 | 2, 1, 2, 2, 2, 1, 1
 | 1, 2, 1, 1, 1, 2, 2
 | 2, 1, 1, 1, 2, 2, 1
 | 1, 1, 2, 1, 1, 2, 2
 |];
travel = 
[| 1, 1, 2, 3, 3, 0, 0, 0
 | 0, 3, 3, 2, 2, 1, 3, 0
 | 0, 0, 4, 1, 2, 1, 1, 1
 | 2, 2, 2, 2, 0, 0, 1, 1
 | 2, 2, 4, 2, 1, 3, 0, 0
 | 0, 1, 1, 0, 0, 3, 2, 1
 | 1, 1, 0, 0, 2, 3, 3, 0
 | 0, 0, 2, 2, 0, 3, 2, 1
 |];
objective = 86;
% time elapsed: 36.53 s
----------
% Pruned 49994 learnt clauses
% Pruned 49997 learnt clauses
opponent = 
[| 3, 4, 5, 7, 6, 2, 8
 | 8, 7, 6, 4, 5, 1, 3
 | 1, 5, 4, 6, 7, 8, 2
 | 5, 1, 3, 2, 8, 6, 7
 | 4, 3, 1, 8, 2, 7, 6
 | 7, 8, 2, 3, 1, 4, 5
 | 6, 2, 8, 1, 3, 5, 4
 | 2, 6, 7, 5, 4, 3, 1
 |];
venue = 
[| 2, 2, 1, 1, 1, 2, 1
 | 2, 2, 2, 1, 2, 1, 1
 | 1, 1, 2, 2, 2, 1, 2
 | 2, 1, 1, 2, 2, 2, 1
 | 1, 2, 2, 2, 1, 2, 1
 | 2, 1, 1, 1, 2, 1, 2
 | 1, 1, 2, 2, 1, 1, 2
 | 1, 2, 1, 1, 1, 2, 2
 |];
travel = 
[| 2, 1, 3, 0, 0, 1, 1, 0
 | 2, 1, 1, 4, 3, 3, 0, 0
 | 0, 0, 1, 2, 1, 4, 1, 1
 | 1, 1, 0, 2, 2, 2, 2, 0
 | 0, 2, 2, 1, 3, 2, 2, 0
 | 1, 1, 0, 0, 3, 3, 1, 1
 | 0, 0, 1, 1, 2, 0, 3, 3
 | 0, 2, 2, 0, 0, 3, 2, 1
 |];
objective = 84;
% time elapsed: 162.92 s
----------
% Pruned 49997 learnt clauses
% Pruned 49993 learnt clauses
% Pruned 49998 learnt clauses
% Pruned 49996 learnt clauses
% Pruned 49994 learnt clauses
% Pruned 49999 learnt clauses
% Pruned 49988 learnt clauses
% Pruned 49991 learnt clauses
% Pruned 49999 learnt clauses
% Pruned 49996 learnt clauses
% Pruned 49999 learnt clauses
% Pruned 49994 learnt clauses
% Pruned 49995 learnt clauses
% Pruned 49997 learnt clauses
% Pruned 49995 learnt clauses
% Pruned 50000 learnt clauses
% Pruned 49997 learnt clauses
% Pruned 49998 learnt clauses
% Pruned 49990 learnt clauses
% Pruned 49999 learnt clauses
% Pruned 49995 learnt clauses
% Pruned 49998 learnt clauses
% Pruned 49998 learnt clauses
% Pruned 49995 learnt clauses
% Pruned 49998 learnt clauses
% Pruned 49996 learnt clauses
% Pruned 49997 learnt clauses
% Pruned 49997 learnt clauses
% Pruned 49993 learnt clauses
% Pruned 49996 learnt clauses
% Pruned 49998 learnt clauses
% Pruned 49993 learnt clauses
% Pruned 49996 learnt clauses
% Pruned 50000 learnt clauses
% Pruned 49995 learnt clauses
% Pruned 49997 learnt clauses
% Pruned 49998 learnt clauses
% Pruned 49993 learnt clauses
% Pruned 49994 learnt clauses
% Pruned 49999 learnt clauses
% Pruned 50000 learnt clauses
% Pruned 49998 learnt clauses
% Pruned 49990 learnt clauses
% Pruned 49987 learnt clauses
% Pruned 49997 learnt clauses
% Pruned 49989 learnt clauses
% Pruned 49983 learnt clauses
% Pruned 49981 learnt clauses
% Pruned 49988 learnt clauses
opponent = 
[| 5, 6, 4, 2, 7, 3, 8
 | 3, 4, 8, 1, 5, 6, 7
 | 2, 7, 6, 8, 4, 1, 5
 | 8, 2, 1, 7, 3, 5, 6
 | 1, 8, 7, 6, 2, 4, 3
 | 7, 1, 3, 5, 8, 2, 4
 | 6, 3, 5, 4, 1, 8, 2
 | 4, 5, 2, 3, 6, 7, 1
 |];
venue = 
[| 1, 1, 2, 2, 1, 2, 1
 | 1, 1, 2, 1, 2, 2, 2
 | 2, 2, 2, 1, 2, 1, 1
 | 2, 2, 1, 1, 1, 2, 2
 | 2, 2, 2, 1, 1, 1, 2
 | 2, 2, 1, 2, 1, 1, 1
 | 1, 1, 1, 2, 2, 2, 1
 | 1, 1, 1, 2, 2, 1, 2
 |];
travel = 
[| 0, 0, 3, 2, 1, 2, 2, 0
 | 0, 0, 2, 2, 3, 1, 1, 3
 | 1, 3, 1, 3, 1, 1, 0, 0
 | 4, 2, 2, 0, 0, 1, 1, 2
 | 4, 1, 1, 2, 0, 0, 2, 2
 | 1, 2, 3, 1, 1, 0, 0, 0
 | 0, 0, 0, 3, 3, 1, 1, 0
 | 0, 0, 0, 3, 3, 2, 1, 1
 |];
objective = 82;
% time elapsed: 3352.72 s
----------
% Pruned 50000 learnt clauses
% Pruned 50000 learnt clauses
% Pruned 49999 learnt clauses
% Pruned 50000 learnt clauses
% Pruned 49997 learnt clauses
% Time limit exceeded!
%%%mzn-stat: nodes=3063728
%%%mzn-stat: failures=2886313
%%%mzn-stat: restarts=4614
%%%mzn-stat: variables=11714
%%%mzn-stat: intVars=385
%%%mzn-stat: boolVariables=11327
%%%mzn-stat: propagators=491
%%%mzn-stat: propagations=838764090
%%%mzn-stat: peakDepth=30
%%%mzn-stat: nogoods=2886313
%%%mzn-stat: backjumps=131066
%%%mzn-stat: peakMem=0.00
%%%mzn-stat: time=3600.085
%%%mzn-stat: initTime=0.083
%%%mzn-stat: solveTime=3600.002
%%%mzn-stat: objective=82
%%%mzn-stat: optTime=3351.964
%%%mzn-stat: baseMem=0.00
%%%mzn-stat: trailMem=0.05
%%%mzn-stat: randomSeed=7
%%%mzn-stat: nSolutions=8
%%%mzn-stat-end
